Minimize
    r
Subject to
    x111 + x121 + x131 = 3
    x112 + x122 + x132 = 4
    x113 + x123 + x133 = 5
    x114 + x124 + x134 = 6
    x115 + x125 + x135 = 7
    x116 + x126 + x136 = 8
    x117 + x127 + x137 = 9
    x118 + x128 + x138 = 10
    x119 + x129 + x139 = 11
    x211 + x221 + x231 = 5
    x212 + x222 + x232 = 6
    x213 + x223 + x233 = 7
    x214 + x224 + x234 = 8
    x215 + x225 + x235 = 9
    x216 + x226 + x236 = 10
    x217 + x227 + x237 = 11
    x218 + x228 + x238 = 12
    x219 + x229 + x239 = 13
    x311 + x321 + x331 = 7
    x312 + x322 + x332 = 8
    x313 + x323 + x333 = 9
    x314 + x324 + x334 = 10
    x315 + x325 + x335 = 11
    x316 + x326 + x336 = 12
    x317 + x327 + x337 = 13
    x318 + x328 + x338 = 14
    x319 + x329 + x339 = 15
    x411 + x421 + x431 = 9
    x412 + x422 + x432 = 10
    x413 + x423 + x433 = 11
    x414 + x424 + x434 = 12
    x415 + x425 + x435 = 13
    x416 + x426 + x436 = 14
    x417 + x427 + x437 = 15
    x418 + x428 + x438 = 16
    x419 + x429 + x439 = 17
    x511 + x521 + x531 = 11
    x512 + x522 + x532 = 12
    x513 + x523 + x533 = 13
    x514 + x524 + x534 = 14
    x515 + x525 + x535 = 15
    x516 + x526 + x536 = 16
    x517 + x527 + x537 = 17
    x518 + x528 + x538 = 18
    x519 + x529 + x539 = 19
    x611 + x621 + x631 = 13
    x612 + x622 + x632 = 14
    x613 + x623 + x633 = 15
    x614 + x624 + x634 = 16
    x615 + x625 + x635 = 17
    x616 + x626 + x636 = 18
    x617 + x627 + x637 = 19
    x618 + x628 + x638 = 20
    x619 + x629 + x639 = 21
    x711 + x721 + x731 = 15
    x712 + x722 + x732 = 16
    x713 + x723 + x733 = 17
    x714 + x724 + x734 = 18
    x715 + x725 + x735 = 19
    x716 + x726 + x736 = 20
    x717 + x727 + x737 = 21
    x718 + x728 + x738 = 22
    x719 + x729 + x739 = 23
    x811 + x821 + x831 = 17
    x812 + x822 + x832 = 18
    x813 + x823 + x833 = 19
    x814 + x824 + x834 = 20
    x815 + x825 + x835 = 21
    x816 + x826 + x836 = 22
    x817 + x827 + x837 = 23
    x818 + x828 + x838 = 24
    x819 + x829 + x839 = 25
    x911 + x921 + x931 = 19
    x912 + x922 + x932 = 20
    x913 + x923 + x933 = 21
    x914 + x924 + x934 = 22
    x915 + x925 + x935 = 23
    x916 + x926 + x936 = 24
    x917 + x927 + x937 = 25
    x918 + x928 + x938 = 26
    x919 + x929 + x939 = 27
    u111 + u121 + u131 = 2
    u112 + u122 + u132 = 2
    u113 + u123 + u133 = 2
    u114 + u124 + u134 = 2
    u115 + u125 + u135 = 2
    u116 + u126 + u136 = 2
    u117 + u127 + u137 = 2
    u118 + u128 + u138 = 2
    u119 + u129 + u139 = 2
    u211 + u221 + u231 = 2
    u212 + u222 + u232 = 2
    u213 + u223 + u233 = 2
    u214 + u224 + u234 = 2
    u215 + u225 + u235 = 2
    u216 + u226 + u236 = 2
    u217 + u227 + u237 = 2
    u218 + u228 + u238 = 2
    u219 + u229 + u239 = 2
    u311 + u321 + u331 = 2
    u312 + u322 + u332 = 2
    u313 + u323 + u333 = 2
    u314 + u324 + u334 = 2
    u315 + u325 + u335 = 2
    u316 + u326 + u336 = 2
    u317 + u327 + u337 = 2
    u318 + u328 + u338 = 2
    u319 + u329 + u339 = 2
    u411 + u421 + u431 = 2
    u412 + u422 + u432 = 2
    u413 + u423 + u433 = 2
    u414 + u424 + u434 = 2
    u415 + u425 + u435 = 2
    u416 + u426 + u436 = 2
    u417 + u427 + u437 = 2
    u418 + u428 + u438 = 2
    u419 + u429 + u439 = 2
    u511 + u521 + u531 = 2
    u512 + u522 + u532 = 2
    u513 + u523 + u533 = 2
    u514 + u524 + u534 = 2
    u515 + u525 + u535 = 2
    u516 + u526 + u536 = 2
    u517 + u527 + u537 = 2
    u518 + u528 + u538 = 2
    u519 + u529 + u539 = 2
    u611 + u621 + u631 = 2
    u612 + u622 + u632 = 2
    u613 + u623 + u633 = 2
    u614 + u624 + u634 = 2
    u615 + u625 + u635 = 2
    u616 + u626 + u636 = 2
    u617 + u627 + u637 = 2
    u618 + u628 + u638 = 2
    u619 + u629 + u639 = 2
    u711 + u721 + u731 = 2
    u712 + u722 + u732 = 2
    u713 + u723 + u733 = 2
    u714 + u724 + u734 = 2
    u715 + u725 + u735 = 2
    u716 + u726 + u736 = 2
    u717 + u727 + u737 = 2
    u718 + u728 + u738 = 2
    u719 + u729 + u739 = 2
    u811 + u821 + u831 = 2
    u812 + u822 + u832 = 2
    u813 + u823 + u833 = 2
    u814 + u824 + u834 = 2
    u815 + u825 + u835 = 2
    u816 + u826 + u836 = 2
    u817 + u827 + u837 = 2
    u818 + u828 + u838 = 2
    u819 + u829 + u839 = 2
    u911 + u921 + u931 = 2
    u912 + u922 + u932 = 2
    u913 + u923 + u933 = 2
    u914 + u924 + u934 = 2
    u915 + u925 + u935 = 2
    u916 + u926 + u936 = 2
    u917 + u927 + u937 = 2
    u918 + u928 + u938 = 2
    u919 + u929 + u939 = 2
    X111 + X112 + X113 + X114 + X115 + X116 + X117 + X118 + X119 - c11 <= 0
    X121 + X122 + X123 + X124 + X125 + X126 + X127 + X128 + X129 - c12 <= 0
    X131 + X132 + X133 + X134 + X135 + X136 + X137 + X138 + X139 - c13 <= 0
    X211 + X212 + X213 + X214 + X215 + X216 + X217 + X218 + X219 - c21 <= 0
    X221 + X222 + X223 + X224 + X225 + X226 + X227 + X228 + X229 - c22 <= 0
    X231 + X232 + X233 + X234 + X235 + X236 + X237 + X238 + X239 - c23 <= 0
    X311 + X312 + X313 + X314 + X315 + X316 + X317 + X318 + X319 - c31 <= 0
    X321 + X322 + X323 + X324 + X325 + X326 + X327 + X328 + X329 - c32 <= 0
    X331 + X332 + X333 + X334 + X335 + X336 + X337 + X338 + X339 - c33 <= 0
    X411 + X412 + X413 + X414 + X415 + X416 + X417 + X418 + X419 - c41 <= 0
    X421 + X422 + X423 + X424 + X425 + X426 + X427 + X428 + X429 - c42 <= 0
    X431 + X432 + X433 + X434 + X435 + X436 + X437 + X438 + X439 - c43 <= 0
    X511 + X512 + X513 + X514 + X515 + X516 + X517 + X518 + X519 - c51 <= 0
    X521 + X522 + X523 + X524 + X525 + X526 + X527 + X528 + X529 - c52 <= 0
    X531 + X532 + X533 + X534 + X535 + X536 + X537 + X538 + X539 - c53 <= 0
    X611 + X612 + X613 + X614 + X615 + X616 + X617 + X618 + X619 - c61 <= 0
    X621 + X622 + X623 + X624 + X625 + X626 + X627 + X628 + X629 - c62 <= 0
    X631 + X632 + X633 + X634 + X635 + X636 + X637 + X638 + X639 - c63 <= 0
    X711 + X712 + X713 + X714 + X715 + X716 + X717 + X718 + X719 - c71 <= 0
    X721 + X722 + X723 + X724 + X725 + X726 + X727 + X728 + X729 - c72 <= 0
    X731 + X732 + X733 + X734 + X735 + X736 + X737 + X738 + X739 - c73 <= 0
    X811 + X812 + X813 + X814 + X815 + X816 + X817 + X818 + X819 - c81 <= 0
    X821 + X822 + X823 + X824 + X825 + X826 + X827 + X828 + X829 - c82 <= 0
    X831 + X832 + X833 + X834 + X835 + X836 + X837 + X838 + X839 - c83 <= 0
    X911 + X912 + X913 + X914 + X915 + X916 + X917 + X918 + X919 - c91 <= 0
    X921 + X922 + X923 + X924 + X925 + X926 + X927 + X928 + X929 - c92 <= 0
    X931 + X932 + X933 + X934 + X935 + X936 + X937 + X938 + X939 - c93 <= 0
    x111 + x211 + x311 + x411 + x511 + x611 + x711 + x811 + x911 - d11 <= 0
    x112 + x212 + x312 + x412 + x512 + x612 + x712 + x812 + x912 - d12 <= 0
    x113 + x213 + x313 + x413 + x513 + x613 + x713 + x813 + x913 - d13 <= 0
    x114 + x214 + x314 + x414 + x514 + x614 + x714 + x814 + x914 - d14 <= 0
    x115 + x215 + x315 + x415 + x515 + x615 + x715 + x815 + x915 - d15 <= 0
    x116 + x216 + x316 + x416 + x516 + x616 + x716 + x816 + x916 - d16 <= 0
    x117 + x217 + x317 + x417 + x517 + x617 + x717 + x817 + x917 - d17 <= 0
    x118 + x218 + x318 + x418 + x518 + x618 + x718 + x818 + x918 - d18 <= 0
    x119 + x219 + x319 + x419 + x519 + x619 + x719 + x819 + x919 - d19 <= 0
    x121 + x221 + x321 + x421 + x521 + x621 + x721 + x821 + x921 - d21 <= 0
    x122 + x222 + x322 + x422 + x522 + x622 + x722 + x822 + x922 - d22 <= 0
    x123 + x223 + x323 + x423 + x523 + x623 + x723 + x823 + x923 - d23 <= 0
    x124 + x224 + x324 + x424 + x524 + x624 + x724 + x824 + x924 - d24 <= 0
    x125 + x225 + x325 + x425 + x525 + x625 + x725 + x825 + x925 - d25 <= 0
    x126 + x226 + x326 + x426 + x526 + x626 + x726 + x826 + x926 - d26 <= 0
    x127 + x227 + x327 + x427 + x527 + x627 + x727 + x827 + x927 - d27 <= 0
    x128 + x228 + x328 + x428 + x528 + x628 + x728 + x828 + x928 - d28 <= 0
    x129 + x229 + x329 + x429 + x529 + x629 + x729 + x829 + x929 - d29 <= 0
    x131 + x231 + x331 + x431 + x531 + x631 + x731 + x831 + x931 - d31 <= 0
    x132 + x232 + x332 + x432 + x532 + x632 + x732 + x832 + x932 - d32 <= 0
    x133 + x233 + x333 + x433 + x533 + x633 + x733 + x833 + x933 - d33 <= 0
    x134 + x234 + x334 + x434 + x534 + x634 + x734 + x834 + x934 - d34 <= 0
    x135 + x235 + x335 + x435 + x535 + x635 + x735 + x835 + x935 - d35 <= 0
    x136 + x236 + x336 + x436 + x536 + x636 + x736 + x836 + x936 - d36 <= 0
    x137 + x237 + x337 + x437 + x537 + x637 + x737 + x837 + x937 - d37 <= 0
    x138 + x238 + x338 + x438 + x538 + x638 + x738 + x838 + x938 - d38 <= 0
    x139 + x239 + x339 + x439 + x539 + x639 + x739 + x839 + x939 - d39 <= 0
    2 x111 - 3 u111 = 0
    2 x112 - 4 u112 = 0
    2 x113 - 5 u113 = 0
    2 x114 - 6 u114 = 0
    2 x115 - 7 u115 = 0
    2 x116 - 8 u116 = 0
    2 x117 - 9 u117 = 0
    2 x118 - 10 u118 = 0
    2 x119 - 11 u119 = 0
    2 x121 - 3 u121 = 0
    2 x122 - 4 u122 = 0
    2 x123 - 5 u123 = 0
    2 x124 - 6 u124 = 0
    2 x125 - 7 u125 = 0
    2 x126 - 8 u126 = 0
    2 x127 - 9 u127 = 0
    2 x128 - 10 u128 = 0
    2 x129 - 11 u129 = 0
    2 x131 - 3 u131 = 0
    2 x132 - 4 u132 = 0
    2 x133 - 5 u133 = 0
    2 x134 - 6 u134 = 0
    2 x135 - 7 u135 = 0
    2 x136 - 8 u136 = 0
    2 x137 - 9 u137 = 0
    2 x138 - 10 u138 = 0
    2 x139 - 11 u139 = 0
    2 x211 - 5 u211 = 0
    2 x212 - 6 u212 = 0
    2 x213 - 7 u213 = 0
    2 x214 - 8 u214 = 0
    2 x215 - 9 u215 = 0
    2 x216 - 10 u216 = 0
    2 x217 - 11 u217 = 0
    2 x218 - 12 u218 = 0
    2 x219 - 13 u219 = 0
    2 x221 - 5 u221 = 0
    2 x222 - 6 u222 = 0
    2 x223 - 7 u223 = 0
    2 x224 - 8 u224 = 0
    2 x225 - 9 u225 = 0
    2 x226 - 10 u226 = 0
    2 x227 - 11 u227 = 0
    2 x228 - 12 u228 = 0
    2 x229 - 13 u229 = 0
    2 x231 - 5 u231 = 0
    2 x232 - 6 u232 = 0
    2 x233 - 7 u233 = 0
    2 x234 - 8 u234 = 0
    2 x235 - 9 u235 = 0
    2 x236 - 10 u236 = 0
    2 x237 - 11 u237 = 0
    2 x238 - 12 u238 = 0
    2 x239 - 13 u239 = 0
    2 x311 - 7 u311 = 0
    2 x312 - 8 u312 = 0
    2 x313 - 9 u313 = 0
    2 x314 - 10 u314 = 0
    2 x315 - 11 u315 = 0
    2 x316 - 12 u316 = 0
    2 x317 - 13 u317 = 0
    2 x318 - 14 u318 = 0
    2 x319 - 15 u319 = 0
    2 x321 - 7 u321 = 0
    2 x322 - 8 u322 = 0
    2 x323 - 9 u323 = 0
    2 x324 - 10 u324 = 0
    2 x325 - 11 u325 = 0
    2 x326 - 12 u326 = 0
    2 x327 - 13 u327 = 0
    2 x328 - 14 u328 = 0
    2 x329 - 15 u329 = 0
    2 x331 - 7 u331 = 0
    2 x332 - 8 u332 = 0
    2 x333 - 9 u333 = 0
    2 x334 - 10 u334 = 0
    2 x335 - 11 u335 = 0
    2 x336 - 12 u336 = 0
    2 x337 - 13 u337 = 0
    2 x338 - 14 u338 = 0
    2 x339 - 15 u339 = 0
    2 x411 - 9 u411 = 0
    2 x412 - 10 u412 = 0
    2 x413 - 11 u413 = 0
    2 x414 - 12 u414 = 0
    2 x415 - 13 u415 = 0
    2 x416 - 14 u416 = 0
    2 x417 - 15 u417 = 0
    2 x418 - 16 u418 = 0
    2 x419 - 17 u419 = 0
    2 x421 - 9 u421 = 0
    2 x422 - 10 u422 = 0
    2 x423 - 11 u423 = 0
    2 x424 - 12 u424 = 0
    2 x425 - 13 u425 = 0
    2 x426 - 14 u426 = 0
    2 x427 - 15 u427 = 0
    2 x428 - 16 u428 = 0
    2 x429 - 17 u429 = 0
    2 x431 - 9 u431 = 0
    2 x432 - 10 u432 = 0
    2 x433 - 11 u433 = 0
    2 x434 - 12 u434 = 0
    2 x435 - 13 u435 = 0
    2 x436 - 14 u436 = 0
    2 x437 - 15 u437 = 0
    2 x438 - 16 u438 = 0
    2 x439 - 17 u439 = 0
    2 x511 - 11 u511 = 0
    2 x512 - 12 u512 = 0
    2 x513 - 13 u513 = 0
    2 x514 - 14 u514 = 0
    2 x515 - 15 u515 = 0
    2 x516 - 16 u516 = 0
    2 x517 - 17 u517 = 0
    2 x518 - 18 u518 = 0
    2 x519 - 19 u519 = 0
    2 x521 - 11 u521 = 0
    2 x522 - 12 u522 = 0
    2 x523 - 13 u523 = 0
    2 x524 - 14 u524 = 0
    2 x525 - 15 u525 = 0
    2 x526 - 16 u526 = 0
    2 x527 - 17 u527 = 0
    2 x528 - 18 u528 = 0
    2 x529 - 19 u529 = 0
    2 x531 - 11 u531 = 0
    2 x532 - 12 u532 = 0
    2 x533 - 13 u533 = 0
    2 x534 - 14 u534 = 0
    2 x535 - 15 u535 = 0
    2 x536 - 16 u536 = 0
    2 x537 - 17 u537 = 0
    2 x538 - 18 u538 = 0
    2 x539 - 19 u539 = 0
    2 x611 - 13 u611 = 0
    2 x612 - 14 u612 = 0
    2 x613 - 15 u613 = 0
    2 x614 - 16 u614 = 0
    2 x615 - 17 u615 = 0
    2 x616 - 18 u616 = 0
    2 x617 - 19 u617 = 0
    2 x618 - 20 u618 = 0
    2 x619 - 21 u619 = 0
    2 x621 - 13 u621 = 0
    2 x622 - 14 u622 = 0
    2 x623 - 15 u623 = 0
    2 x624 - 16 u624 = 0
    2 x625 - 17 u625 = 0
    2 x626 - 18 u626 = 0
    2 x627 - 19 u627 = 0
    2 x628 - 20 u628 = 0
    2 x629 - 21 u629 = 0
    2 x631 - 13 u631 = 0
    2 x632 - 14 u632 = 0
    2 x633 - 15 u633 = 0
    2 x634 - 16 u634 = 0
    2 x635 - 17 u635 = 0
    2 x636 - 18 u636 = 0
    2 x637 - 19 u637 = 0
    2 x638 - 20 u638 = 0
    2 x639 - 21 u639 = 0
    2 x711 - 15 u711 = 0
    2 x712 - 16 u712 = 0
    2 x713 - 17 u713 = 0
    2 x714 - 18 u714 = 0
    2 x715 - 19 u715 = 0
    2 x716 - 20 u716 = 0
    2 x717 - 21 u717 = 0
    2 x718 - 22 u718 = 0
    2 x719 - 23 u719 = 0
    2 x721 - 15 u721 = 0
    2 x722 - 16 u722 = 0
    2 x723 - 17 u723 = 0
    2 x724 - 18 u724 = 0
    2 x725 - 19 u725 = 0
    2 x726 - 20 u726 = 0
    2 x727 - 21 u727 = 0
    2 x728 - 22 u728 = 0
    2 x729 - 23 u729 = 0
    2 x731 - 15 u731 = 0
    2 x732 - 16 u732 = 0
    2 x733 - 17 u733 = 0
    2 x734 - 18 u734 = 0
    2 x735 - 19 u735 = 0
    2 x736 - 20 u736 = 0
    2 x737 - 21 u737 = 0
    2 x738 - 22 u738 = 0
    2 x739 - 23 u739 = 0
    2 x811 - 17 u811 = 0
    2 x812 - 18 u812 = 0
    2 x813 - 19 u813 = 0
    2 x814 - 20 u814 = 0
    2 x815 - 21 u815 = 0
    2 x816 - 22 u816 = 0
    2 x817 - 23 u817 = 0
    2 x818 - 24 u818 = 0
    2 x819 - 25 u819 = 0
    2 x821 - 17 u821 = 0
    2 x822 - 18 u822 = 0
    2 x823 - 19 u823 = 0
    2 x824 - 20 u824 = 0
    2 x825 - 21 u825 = 0
    2 x826 - 22 u826 = 0
    2 x827 - 23 u827 = 0
    2 x828 - 24 u828 = 0
    2 x829 - 25 u829 = 0
    2 x831 - 17 u831 = 0
    2 x832 - 18 u832 = 0
    2 x833 - 19 u833 = 0
    2 x834 - 20 u834 = 0
    2 x835 - 21 u835 = 0
    2 x836 - 22 u836 = 0
    2 x837 - 23 u837 = 0
    2 x838 - 24 u838 = 0
    2 x839 - 25 u839 = 0
    2 x911 - 19 u911 = 0
    2 x912 - 20 u912 = 0
    2 x913 - 21 u913 = 0
    2 x914 - 22 u914 = 0
    2 x915 - 23 u915 = 0
    2 x916 - 24 u916 = 0
    2 x917 - 25 u917 = 0
    2 x918 - 26 u918 = 0
    2 x919 - 27 u919 = 0
    2 x921 - 19 u921 = 0
    2 x922 - 20 u922 = 0
    2 x923 - 21 u923 = 0
    2 x924 - 22 u924 = 0
    2 x925 - 23 u925 = 0
    2 x926 - 24 u926 = 0
    2 x927 - 25 u927 = 0
    2 x928 - 26 u928 = 0
    2 x929 - 27 u929 = 0
    2 x931 - 19 u931 = 0
    2 x932 - 20 u932 = 0
    2 x933 - 21 u933 = 0
    2 x934 - 22 u934 = 0
    2 x935 - 23 u935 = 0
    2 x936 - 24 u936 = 0
    2 x937 - 25 u937 = 0
    2 x938 - 26 u938 = 0
    2 x939 - 27 u939 = 0
    x111 + x112 + x113 + x114 + x115 + x116 + x117 + x118 + x119 + x211 + x212 + x213 + x214 + x215 + x216 + x217 + x218 + x219 + x311 + x312 + x313 + x314 + x315 + x316 + x317 + x318 + x319 + x411 + x412 + x413 + x414 + x415 + x416 + x417 + x418 + x419 + x511 + x512 + x513 + x514 + x515 + x516 + x517 + x518 + x519 + x611 + x612 + x613 + x614 + x615 + x616 + x617 + x618 + x619 + x711 + x712 + x713 + x714 + x715 + x716 + x717 + x718 + x719 + x811 + x812 + x813 + x814 + x815 + x816 + x817 + x818 + x819 + x911 + x912 + x913 + x914 + x915 + x916 + x917 + x918 + x919 - r <= 0
    x121 + x122 + x123 + x124 + x125 + x126 + x127 + x128 + x129 + x221 + x222 + x223 + x224 + x225 + x226 + x227 + x228 + x229 + x321 + x322 + x323 + x324 + x325 + x326 + x327 + x328 + x329 + x421 + x422 + x423 + x424 + x425 + x426 + x427 + x428 + x429 + x521 + x522 + x523 + x524 + x525 + x526 + x527 + x528 + x529 + x621 + x622 + x623 + x624 + x625 + x626 + x627 + x628 + x629 + x721 + x722 + x723 + x724 + x725 + x726 + x727 + x728 + x729 + x821 + x822 + x823 + x824 + x825 + x826 + x827 + x828 + x829 + x921 + x922 + x923 + x924 + x925 + x926 + x927 + x928 + x929 - r <= 0
    x131 + x132 + x133 + x134 + x135 + x136 + x137 + x138 + x139 + x231 + x232 + x233 + x234 + x235 + x236 + x237 + x238 + x239 + x331 + x332 + x333 + x334 + x335 + x336 + x337 + x338 + x339 + x431 + x432 + x433 + x434 + x435 + x436 + x437 + x438 + x439 + x531 + x532 + x533 + x534 + x535 + x536 + x537 + x538 + x539 + x631 + x632 + x633 + x634 + x635 + x636 + x637 + x638 + x639 + x731 + x732 + x733 + x734 + x735 + x736 + x737 + x738 + x739 + x831 + x832 + x833 + x834 + x835 + x836 + x837 + x838 + x839 + x931 + x932 + x933 + x934 + x935 + x936 + x937 + x938 + x939 - r <= 0
Bounds
    x111 >=0
    x112 >=0
    x113 >=0
    x114 >=0
    x115 >=0
    x116 >=0
    x117 >=0
    x118 >=0
    x119 >=0
    x121 >=0
    x122 >=0
    x123 >=0
    x124 >=0
    x125 >=0
    x126 >=0
    x127 >=0
    x128 >=0
    x129 >=0
    x131 >=0
    x132 >=0
    x133 >=0
    x134 >=0
    x135 >=0
    x136 >=0
    x137 >=0
    x138 >=0
    x139 >=0
    x211 >=0
    x212 >=0
    x213 >=0
    x214 >=0
    x215 >=0
    x216 >=0
    x217 >=0
    x218 >=0
    x219 >=0
    x221 >=0
    x222 >=0
    x223 >=0
    x224 >=0
    x225 >=0
    x226 >=0
    x227 >=0
    x228 >=0
    x229 >=0
    x231 >=0
    x232 >=0
    x233 >=0
    x234 >=0
    x235 >=0
    x236 >=0
    x237 >=0
    x238 >=0
    x239 >=0
    x311 >=0
    x312 >=0
    x313 >=0
    x314 >=0
    x315 >=0
    x316 >=0
    x317 >=0
    x318 >=0
    x319 >=0
    x321 >=0
    x322 >=0
    x323 >=0
    x324 >=0
    x325 >=0
    x326 >=0
    x327 >=0
    x328 >=0
    x329 >=0
    x331 >=0
    x332 >=0
    x333 >=0
    x334 >=0
    x335 >=0
    x336 >=0
    x337 >=0
    x338 >=0
    x339 >=0
    x411 >=0
    x412 >=0
    x413 >=0
    x414 >=0
    x415 >=0
    x416 >=0
    x417 >=0
    x418 >=0
    x419 >=0
    x421 >=0
    x422 >=0
    x423 >=0
    x424 >=0
    x425 >=0
    x426 >=0
    x427 >=0
    x428 >=0
    x429 >=0
    x431 >=0
    x432 >=0
    x433 >=0
    x434 >=0
    x435 >=0
    x436 >=0
    x437 >=0
    x438 >=0
    x439 >=0
    x511 >=0
    x512 >=0
    x513 >=0
    x514 >=0
    x515 >=0
    x516 >=0
    x517 >=0
    x518 >=0
    x519 >=0
    x521 >=0
    x522 >=0
    x523 >=0
    x524 >=0
    x525 >=0
    x526 >=0
    x527 >=0
    x528 >=0
    x529 >=0
    x531 >=0
    x532 >=0
    x533 >=0
    x534 >=0
    x535 >=0
    x536 >=0
    x537 >=0
    x538 >=0
    x539 >=0
    x611 >=0
    x612 >=0
    x613 >=0
    x614 >=0
    x615 >=0
    x616 >=0
    x617 >=0
    x618 >=0
    x619 >=0
    x621 >=0
    x622 >=0
    x623 >=0
    x624 >=0
    x625 >=0
    x626 >=0
    x627 >=0
    x628 >=0
    x629 >=0
    x631 >=0
    x632 >=0
    x633 >=0
    x634 >=0
    x635 >=0
    x636 >=0
    x637 >=0
    x638 >=0
    x639 >=0
    x711 >=0
    x712 >=0
    x713 >=0
    x714 >=0
    x715 >=0
    x716 >=0
    x717 >=0
    x718 >=0
    x719 >=0
    x721 >=0
    x722 >=0
    x723 >=0
    x724 >=0
    x725 >=0
    x726 >=0
    x727 >=0
    x728 >=0
    x729 >=0
    x731 >=0
    x732 >=0
    x733 >=0
    x734 >=0
    x735 >=0
    x736 >=0
    x737 >=0
    x738 >=0
    x739 >=0
    x811 >=0
    x812 >=0
    x813 >=0
    x814 >=0
    x815 >=0
    x816 >=0
    x817 >=0
    x818 >=0
    x819 >=0
    x821 >=0
    x822 >=0
    x823 >=0
    x824 >=0
    x825 >=0
    x826 >=0
    x827 >=0
    x828 >=0
    x829 >=0
    x831 >=0
    x832 >=0
    x833 >=0
    x834 >=0
    x835 >=0
    x836 >=0
    x837 >=0
    x838 >=0
    x839 >=0
    x911 >=0
    x912 >=0
    x913 >=0
    x914 >=0
    x915 >=0
    x916 >=0
    x917 >=0
    x918 >=0
    x919 >=0
    x921 >=0
    x922 >=0
    x923 >=0
    x924 >=0
    x925 >=0
    x926 >=0
    x927 >=0
    x928 >=0
    x929 >=0
    x931 >=0
    x932 >=0
    x933 >=0
    x934 >=0
    x935 >=0
    x936 >=0
    x937 >=0
    x938 >=0
    x939 >=0
    c11 >= 0
    c12 >= 0
    c13 >= 0
    c21 >= 0
    c22 >= 0
    c23 >= 0
    c31 >= 0
    c32 >= 0
    c33 >= 0
    c41 >= 0
    c42 >= 0
    c43 >= 0
    c51 >= 0
    c52 >= 0
    c53 >= 0
    c61 >= 0
    c62 >= 0
    c63 >= 0
    c71 >= 0
    c72 >= 0
    c73 >= 0
    c81 >= 0
    c82 >= 0
    c83 >= 0
    c91 >= 0
    c92 >= 0
    c93 >= 0
    d11 >= 0
    d12 >= 0
    d13 >= 0
    d14 >= 0
    d15 >= 0
    d16 >= 0
    d17 >= 0
    d18 >= 0
    d19 >= 0
    d21 >= 0
    d22 >= 0
    d23 >= 0
    d24 >= 0
    d25 >= 0
    d26 >= 0
    d27 >= 0
    d28 >= 0
    d29 >= 0
    d31 >= 0
    d32 >= 0
    d33 >= 0
    d34 >= 0
    d35 >= 0
    d36 >= 0
    d37 >= 0
    d38 >= 0
    d39 >= 0
Binary
    u111
    u121
    u131
    u141
    u151
    u161
    u171
    u181
    u191
    u112
    u122
    u132
    u142
    u152
    u162
    u172
    u182
    u192
    u113
    u123
    u133
    u143
    u153
    u163
    u173
    u183
    u193
    u211
    u221
    u231
    u241
    u251
    u261
    u271
    u281
    u291
    u212
    u222
    u232
    u242
    u252
    u262
    u272
    u282
    u292
    u213
    u223
    u233
    u243
    u253
    u263
    u273
    u283
    u293
    u311
    u321
    u331
    u341
    u351
    u361
    u371
    u381
    u391
    u312
    u322
    u332
    u342
    u352
    u362
    u372
    u382
    u392
    u313
    u323
    u333
    u343
    u353
    u363
    u373
    u383
    u393
    u411
    u421
    u431
    u441
    u451
    u461
    u471
    u481
    u491
    u412
    u422
    u432
    u442
    u452
    u462
    u472
    u482
    u492
    u413
    u423
    u433
    u443
    u453
    u463
    u473
    u483
    u493
    u511
    u521
    u531
    u541
    u551
    u561
    u571
    u581
    u591
    u512
    u522
    u532
    u542
    u552
    u562
    u572
    u582
    u592
    u513
    u523
    u533
    u543
    u553
    u563
    u573
    u583
    u593
    u611
    u621
    u631
    u641
    u651
    u661
    u671
    u681
    u691
    u612
    u622
    u632
    u642
    u652
    u662
    u672
    u682
    u692
    u613
    u623
    u633
    u643
    u653
    u663
    u673
    u683
    u693
    u711
    u721
    u731
    u741
    u751
    u761
    u771
    u781
    u791
    u712
    u722
    u732
    u742
    u752
    u762
    u772
    u782
    u792
    u713
    u723
    u733
    u743
    u753
    u763
    u773
    u783
    u793
    u811
    u821
    u831
    u841
    u851
    u861
    u871
    u881
    u891
    u812
    u822
    u832
    u842
    u852
    u862
    u872
    u882
    u892
    u813
    u823
    u833
    u843
    u853
    u863
    u873
    u883
    u893
    u911
    u921
    u931
    u941
    u951
    u961
    u971
    u981
    u991
    u912
    u922
    u932
    u942
    u952
    u962
    u972
    u982
    u992
    u913
    u923
    u933
    u943
    u953
    u963
    u973
    u983
    u993
End